\ LP format - for model browsing. Use MPS format to capture full model detail.
Maximize
  x_1 + 2 x_2 + x_3 + 4 x_4 + 5 x_5 + 3 x_6 + 6 x_7 + 10 x_8 + 9 x_9
   + 6 x_10 + 6 x_11 + 9 x_12 + 2 x_13 + 4 x_14 + 9 x_15
Subject To
 C_1: 5 x_1 + 4 x_2 + 10 x_6 + 4 x_8 + 7 x_9 + 8 x_12 + 2 x_14 + 10 x_15
   <= 25
 C_2: 5 x_2 + 6 x_3 + 4 x_5 + 9 x_6 + 6 x_7 + 2 x_8 + 3 x_10 + 7 x_11
   + 2 x_14 + 3 x_15 <= 23
 C_3: 2 x_1 + 10 x_2 + 5 x_5 + 10 x_11 + 5 x_13 <= 16
 C_4: 6 x_4 + 10 x_8 + 9 x_9 + 7 x_10 + 3 x_12 + 5 x_13 <= 20
 C_5: 5 x_2 + 3 x_6 + 4 x_10 + 5 x_12 + 4 x_13 + 4 x_14 <= 12
 C_6: 7 x_1 + 6 x_2 + 7 x_3 + 8 x_5 + 8 x_6 + 3 x_7 + 2 x_8 + 3 x_9
   + 2 x_12 + 4 x_15 <= 25
 C_7: 3 x_5 + 9 x_7 + x_8 + 5 x_9 + 3 x_10 + 10 x_11 + 8 x_12 + 10 x_13
   + 8 x_15 <= 28
 C_8: 7 x_1 + 8 x_2 + 2 x_4 + 8 x_5 + 2 x_6 + 5 x_7 + 9 x_8 <= 20
 C_9: 4 x_4 + 10 x_8 + 9 x_9 + x_12 + x_13 + 10 x_14 + 7 x_15 <= 21
 C_10: 7 x_1 + 10 x_6 + 2 x_7 + x_8 + 8 x_9 + 2 x_12 + 10 x_14 + 5 x_15
   <= 22
Bounds
Binaries
 x_1 x_2 x_3 x_4 x_5 x_6 x_7 x_8 x_9 x_10 x_11 x_12 x_13 x_14 x_15
End
